0 19 21
1 19 25
2 26 26
3 25 28
4 17 30
5 25 30
6 16 28
7 22 26
8 25 25
9 16 25
10 4 23
11 19 23
12 18 22
13 21 21
14 20 20
15 20 20
16 17 19
17 15 19
18 10 18
19 7 18
20 13 17
21 8 16
22 15 15
23 12 13
24 11 13
25 8 13
26 7 11
27 9 12
28 10 10
29 9 9
30 8 10
31 8 8
32 7 7
33 6 6
34 1 5
35 5 5
36 2 5
37 4 4
38 2 3
39 1 3
40 1 2
41 1 1

